
  32   50
  18    6   12   14   10   11    9   14   12    8    7    4   17    6    9   10    7   15    8   10   17    6    8    9   10   14    7    6    9   16   15    0    0    0    0    0    0    0    0    0    0    0    0    0    0    0    0    0    0    0

   0   0   0   0   0   0   0   0   0   0   0   0   0   0   0   0   0   0   0   0   0   0   0   0   0   0   0   0   0   0   0   0   0   0   0   0   0   0   0   0   0   0   0   0   0   0   0   0   0   0   0   8 2 3 4 6 8 9 10 11 
   8   7   0   0   0   0   0   0   0   4   0   0   4   0   0   0   0   0   0   5   0   0   0   0   0   0   0   0   0   0   0   0   0   0   0   0   0   0   0   0   0   0   0   0   0   0   0   0   0   0   0   7 31 29 18 16 13 7 5 
   7   7   0   0   0   0   0   0   0   0   0   3   0   0   0   0   0   0   0   0  10   0   0   0   0   0   0   2   0   0   0   0   0   0   0   0   0   0   0   0   0   0   0   0   0   0   0   0   0   0   0   7 31 29 20 17 16 15 7 
   4   0   0   0   0   0   0   0   0   0   8   0   0   0   0   0   0   0   0   0   0   0   5   0   0   0   0   0   0   0   0   0   0   0   0   0   0   0   0   0   0   0   0   0   0   0   0   0   0   0   0   7 31 30 29 27 17 16 14 
   2   0   0   0   0   4   0   0   0   0   0   0   0   0   0   4  10   0   0   0   0   0   0   2   0   0   0   0   1   0   0   0   0   0   0   0   0   0   0   0   0   0   0   0   0   0   0   0   0   0   0   5 21 20 17 15 12 
   1   0   0   6   0   0   0   0   0   0   0   0   0   0   0   0   0   0   1   4   0   0   0   0   0   0   0   0   0   0   0   0   0   0   0   0   0   0   0   0   0   0   0   0   0   0   0   0   0   0   0   6 30 29 28 23 20 13 
   3   0   0   0   0   0   0   0   0   0   0   0   0  10   0   0   0   0   0   0   2   0   0   0   0   0   0   0   0   0   0   8   0   0   0   0   0   0   0   0   0   0   0   0   0   0   0   0   0   0   0   6 30 27 26 24 23 21 
   6   0   0   0   0   0   0   0   0   0   0   0   0   0   0   0   0   0   0   0   0   0   2   0   0   0   0   0   0   0   0  10   0   0   0   0   0   0   0   0   0   0   0   0   0   0   0   0   0   0   0   4 27 25 23 16 
   4   9   0   8   0   0   0   0   0   0   0   0   0   0   0   0  10   0   0   0   0   0   0   0   5   0   0   0   0   0   0   0   0   0   0   0   0   0   0   0   0   0   0   0   0   0   0   0   0   0   0   6 29 26 25 24 23 22 
   1   0   0   0   0   0   0   0   0   0   0   5   0   0   0   9   0   0   0   0   0   0   0   0   0   0   0   0   0   0   0   4   0   0   0   0   0   0   0   0   0   0   0   0   0   0   0   0   0   0   0   4 31 25 24 19 
   7   0   0   0   5   0   0   0   0   0   0   0   0   0   0   0   0   0   7   0   0   0   0   0   0  10   0   0   0   0   0   0   0   0   0   0   0   0   0   0   0   0   0   0   0   0   0   0   0   0   0   4 28 25 23 19 
   3   0   0   0   0  10   0   0   0   1   0   6   0   6   0   0   0   0   8   0   0   7   0   0   0   0   0   4   0   0   9  10   0   0   0   0   0   0   0   0   0   0   0   0   0   0   0   0   0   0   0   4 27 26 24 22 
   9   8   0   0   0   0   0   0   0   0   0   0   0   0   0   0   0   0   0   0   0   0   0   0   0   0   0   0   0   0   0   0   0   0   0   0   0   0   0   0   0   0   0   0   0   0   0   0   0   0   0   3 25 24 19 
   6   0   0   9   0   0   0   0   0   9   0   0   0   0   0   0   0   0   0   0   0   0   0   0   0   0   0   0   0   0   0   0   0   0   0   0   0   0   0   0   0   0   0   0   0   0   0   0   0   0   0   3 23 22 20 
  10   0   0   0   0   0   0   7   0   0   0   0   0   0   0   0   0   0   0   0   0   0   4   0   0   0   2   0   2   0   0   0   0   0   0   0   0   0   0   0   0   0   0   0   0   0   0   0   0   0   0   3 28 23 22 
   6   0   0   0   0   0   0   0   0   0   0   0   0   2   0   0   0   0   0   0   0   0   0   0   0   0   0   0   0   0   0   0   0   0   0   0   0   0   0   0   0   0   0   0   0   0   0   0   0   0   0   2 24 19 
   5   0   0   0   0   0   0   0   0   2   0   0   2   0   2   0   0   1   0   0   0   0   0   0   0   0   0   0   5   0   7   0   0   0   0   0   0   0   0   0   0   0   0   0   0   0   0   0   0   0   0   2 25 22 
   9   0   0   0   4   0   0   4   0   6   0   0   0   0   0   0   0   0   0   0   6   0   0   0   0   4   0   0   0   0   0   0   0   0   0   0   0   0   0   0   0   0   0   0   0   0   0   0   0   0   0   2 26 23 
   9   0   0   6   0   8   0   0   0   0   0   0   0   0   0   8   0   0   0   8   0   0   0   0   9   0   0   4   0   0   0   0   0   0   0   0   0   0   0   0   0   0   0   0   0   0   0   0   0   0   0   1 22 
   7   0   0   5  10   0   0   0   0   0   0   0   0   0   0   0   0   0   0   0   0   0   0   6   0   0   0   0   0   0   0   0   0   0   0   0   0   0   0   0   0   0   0   0   0   0   0   0   0   0   0   1 26 
   3   0   0   0   3   0   3   0   0   0   0   0   0   0   0   0   0   3   2   0   0   5   0   0   0   0   0   0   0   0   0   0   0   0   0   0   0   0   0   0   0   0   0   0   0   0   0   0   0   0   0   1 22 
   3   0   0   0   0   0   0   0   0   7   0   7   0   0   0   1   0   0   3   4   0   0   0   0   2   0   0   0   0   0   0   0   0   0   0   0   0   0   0   0   0   0   0   0   0   0   0   0   0   0   0   1 32
   2   0   0   0   0   0   0   0   0   0   0   0   0   2   0   0   0   7   0   0   0   0   0   0   0   3   0   0   0   0   0   0   0   0   0   0   0   0   0   0   0   0   0   0   0   0   0   0   0   0   0   1 32
   1   0   0   0   0   1   0   0   0   0   0   0   0   9   0   0   0   0   0   0   0   3   0   0   0   0   0   3   0   0   0   0   0   0   0   0   0   0   0   0   0   0   0   0   0   0   0   0   0   0   0   1 32
   6   0   3   0   0   0   6   0   0   0   0   5   0   7   6   0   0   0   0   0   0   0   0   4   0   0   8   0   0   0   0   0   0   0   0   0   0   0   0   0   0   0   0   0   0   0   0   0   0   0   0   1 32
   8   0   0   0   9   0   0   0   0   0   0   0   0   0   0   0   0   0   0   0   0   0   0   6   0   0   0   0   0   9   0   0   0   0   0   0   0   0   0   0   0   0   0   0   0   0   0   0   0   0   0   1 32
   3   3   0   0   0   0   0   0   0   0   0   0   0   0   0   0   0   0   0   0   0   0   0   0   5   0   0   5   0   5   0   0   0   0   0   0   0   0   0   0   0   0   0   0   0   0   0   0   0   0   0   1 32
   8   0   0   0   0   0   8   8   0   5   0   0   0   4   0   0   0   0   0   0   0   0   0   0   0   0   9   0   1   0   0   0   0   0   0   0   0   0   0   0   0   0   0   0   0   0   0   0   0   0   0   1 32
   9   0   0   0   0   0   0   0   0   0   0   0   0   0   0   0   0   0   0   0   0   0   0   3   0   0   0   0   0   0   4   0   0   0   0   0   0   0   0   0   0   0   0   0   0   0   0   0   0   0   0   1 32
   1   0   0   0   0   0   0   0  10   0   0   0   0   0   0   0   0   0   0   0   0   0   0   0   0   0   1   0   0   0   0   0   0   0   0   0   0   0   0   0   0   0   0   0   0   0   0   0   0   0   0   1 32
   6   0   6   0   0   0   0   0   7   0   0   0   0   3   0   6   0   1   9   0   0  10   0   0   0   0   3   4   0   5   0   0   0   0   0   0   0   0   0   0   0   0   0   0   0   0   0   0   0   0   0   1 32
   0   0   0   0   0   0   0   0   0   0   0   0   0   0   0   0   0   0   0   0   0   0   0   0   0   0   0   0   0   0   0   0   0   0   0   0   0   0   0   0   0   0   0   0   0   0   0   0   0   0   0   0 
